NAME: PointSet_Angle_30_4
TYPE: TSP
COMMENT: Points chosen discrete uniformly at random out of ${0, \ldots, 500}^2$.
DIMENSION: 30
EDGE_WEIGHT_TYPE: EUC_2D
NODE_COORD_SECTION
1 465 415
2 435 110
3 134 165
4 204 162
5 37 393
6 454 123
7 234 289
8 132 10
9 189 9
10 444 334
11 7 233
12 484 215
13 396 226
14 471 296
15 63 298
16 280 27
17 459 461
18 384 92
19 373 88
20 0 410
21 481 454
22 32 461
23 490 165
24 471 178
25 421 161
26 11 175
27 140 242
28 390 35
29 468 106
30 77 277
EOF
